Minimize
 + 8.000000 x6 + 8.000000 x7 + 8.000000 x8 + 8.000000 x9 + 8.000000 x10 + 8.000000 x11 + 8.000000 x12 + 8.000000 x13 + 8.000000 x14 + 8.000000 x15 + 6.000000 x16 + 6.000000 x17 + 6.000000 x18 + 6.000000 x19 + 6.000000 x20 + 6.000000 x21 + 6.000000 x22 + 6.000000 x23 + 6.000000 x24 + 6.000000 x25 + 6.000000 x26 + 6.000000 x27 + 6.000000 x28 + 6.000000 x29 + 6.000000 x30 + 6.000000 x31 + 6.000000 x32 + 6.000000 x33 + 6.000000 x34 + 6.000000 x35 + 6.000000 x36 + 6.000000 x37 + 6.000000 x38 + 6.000000 x39 + 6.000000 x40
Subject To
 + y6,6 + y6,7 + y6,14 + y6,15 + y6,16 + y6,17 + y6,18 + y6,19 + y6,20 =  1
 + y7,6 + y7,7 + y7,8 + y7,16 + y7,17 + y7,18 + y7,19 + y7,20 =  1
 + y8,7 + y8,8 + y8,9 + y8,10 + y8,21 + y8,22 + y8,23 + y8,24 + y8,25 =  1
 + y9,8 + y9,9 + y9,10 + y9,11 + y9,21 + y9,22 + y9,23 + y9,24 + y9,25 + y9,26 + y9,27 =  1
 + y10,8 + y10,9 + y10,10 + y10,11 + y10,12 + y10,13 + y10,22 + y10,23 + y10,24 + y10,25 + y10,26 + y10,27 + y10,28 + y10,29 + y10,30 =  1
...
 + y6,6 - x6 <= 0
 + y6,7 - x7 <= 0
 + y6,14 - x14 <= 0
 + y6,15 - x15 <= 0
 + y6,16 - x16 <= 0
 + y6,17 - x17 <= 0
 + y6,18 - x18 <= 0
 + y6,19 - x19 <= 0
 + y6,20 - x20 <= 0
 + y7,6 - x6 <= 0
 + y7,7 - x7 <= 0
...
Binary
 x6
 x7
 x8
 x9
 x10
 x11
 x12
 x13
 x14
 x15
 x16
 x17
...
End